# Objective value = 1.8098019999999735e+04
I_0_0 3418
I_0_1 4754
I_0_2 4.1660000000000537e+03
I_0_3 4.1340000000000482e+03
I_0_4 4.0359999999999504e+03
I_0_5 3.6780000000000477e+03
I_0_6 5014.00000000004
I_1_0 92
I_1_1 0
I_1_2 9.1999999999999957e+01
I_1_3 -2.1674217975942156e-11
I_1_4 9.2000000000021657e+01
I_1_5 9.2000000000000085e+01
I_1_6 0
I_2_0 27
I_2_1 0
I_2_2 2.6999999999999996e+01
I_2_3 -5.2308157805214250e-12
I_2_4 2.7000000000005215e+01
I_2_5 27
I_2_6 0
I_3_0 22
I_3_1 0
I_3_2 22
I_3_3 0
I_3_4 22
I_3_5 22
I_3_6 0
I_4_0 164
I_4_1 82
I_4_2 0
I_4_3 164
I_4_4 82
I_4_5 164
I_4_6 82
I_5_0 162
I_5_1 8.1000000000000284e+01
I_5_2 1.6200000000000028e+02
I_5_3 8.0999999999999687e+01
I_5_4 162
I_5_5 81
I_5_6 0
I_6_0 80
I_6_1 0
I_6_2 80
I_6_3 0
I_6_4 80
I_6_5 8.0000000000000114e+01
I_6_6 0
I_7_0 154
I_7_1 7.7000000000000142e+01
I_7_2 1.5399999999999989e+02
I_7_3 7.6999999999999872e+01
I_7_4 154
I_7_5 77
I_7_6 0
I_8_0 88
I_8_1 44
I_8_2 8.8000000000001023e+01
I_8_3 4.3999999999966491e+01
I_8_4 8.7999999999988432e+01
I_8_5 8.7999999999999986e+01
I_8_6 44.0000000000001
I_9_0 150
I_9_1 75
I_9_2 -3.4248159863636829e-11
I_9_3 1.5000000000005116e+02
I_9_4 7.5000000000085265e+01
I_9_5 1.5000000000000003e+02
I_9_6 7.5000000000000028e+01
I_10_0 148
I_10_1 74
I_10_2 148
I_10_3 148
I_10_4 1.4800000000000290e+02
I_10_5 1.4800000000000020e+02
I_10_6 74.0000000000002
I_11_0 49
I_11_1 0
I_11_2 49
I_11_3 0
I_11_4 49
I_11_5 49
I_11_6 0
I_12_0 33
I_12_1 -6.3883359826281244e-13
I_12_2 3.3000000000000654e+01
I_12_3 7.3274719625260332e-15
I_12_4 33
I_12_5 3.2999999999999979e+01
I_12_6 0
I_13_0 138
I_13_1 69
I_13_2 4.2717829273897223e-11
I_13_3 138
I_13_4 6.8999999999996959e+01
I_13_5 138
I_13_6 6.8999999999999986e+01
I_14_0 67
I_14_1 0
I_14_2 6.6999999999999986e+01
I_14_3 67
I_14_4 0
I_14_5 67
I_14_6 0
I_15_0 36
I_15_1 1.8000000000000014e+01
I_15_2 36
I_15_3 1.7999999999988638e+01
I_15_4 36
I_15_5 18
I_15_6 0
I_16_0 65
I_16_1 0
I_16_2 65
I_16_3 0
I_16_4 65
I_16_5 6.5000000000000028e+01
I_16_6 0
I_17_0 120
I_17_1 60
I_17_2 120
I_17_3 60
I_17_4 0
I_17_5 120
I_17_6 5.9999999999999950e+01
I_18_0 48
I_18_1 0
I_18_2 48
I_18_3 48
I_18_4 0
I_18_5 48
I_18_6 0
I_19_0 57
I_19_1 0
I_19_2 57
I_19_3 57
I_19_4 0
I_19_5 57
I_19_6 0
I_20_0 50
I_20_1 0
I_20_2 4.9999999999999616e+01
I_20_3 1.6309176231743550e-11
I_20_4 4.9999999999983757e+01
I_20_5 5.0000000000000036e+01
I_20_6 0
I_21_0 96
I_21_1 48
I_21_2 -7.7022832556394860e-12
I_21_3 9.6000000000005372e+01
I_21_4 96
I_21_5 4.7999999999994756e+01
I_21_6 -5.2544635309459409e-12
I_22_0 36
I_22_1 18
I_22_2 36
I_22_3 18
I_22_4 1.3714846500165646e-12
I_22_5 36
I_22_6 18
I_23_0 66
I_23_1 33
I_23_2 0
I_23_3 66
I_23_4 33
I_23_5 66
I_23_6 3.2999999999999993e+01
I_24_0 72
I_24_1 36
I_24_2 -4.9880100050359033e-12
I_24_3 7.2000000000002728e+01
I_24_4 7.2000000000004420e+01
I_24_5 3.5999999999998039e+01
I_24_6 -2.0197177263980848e-12
I_25_0 62
I_25_1 31
I_25_2 -1.4665602066088468e-11
I_25_3 6.1999999999985334e+01
I_25_4 3.0999999999992664e+01
I_25_5 6.1999999999992767e+01
I_25_6 31
q_1_0 0
q_1_1 1.8399999999999994e+02
q_1_2 -2.1631585411796550e-11
q_1_3 1.8400000000004331e+02
q_1_4 9.1999999999978428e+01
q_1_5 -8.5265128291212022e-14
q_2_0 0
q_2_1 54
q_2_2 -5.2272630668426245e-12
q_2_3 5.4000000000010445e+01
q_2_4 2.6999999999994785e+01
q_2_5 0
q_3_0 0
q_3_1 44
q_3_2 0
q_3_3 44
q_3_4 22
q_3_5 0
q_4_0 0
q_4_1 0
q_4_2 246
q_4_3 0
q_4_4 164
q_4_5 0
q_5_0 2.7877700148337681e-13
q_5_1 162
q_5_2 -5.8264504332328215e-13
q_5_3 1.6200000000000028e+02
q_5_4 0
q_5_5 0
q_6_0 0
q_6_1 160
q_6_2 0
q_6_3 160
q_6_4 8.0000000000000114e+01
q_6_5 -1.1368683772161603e-13
q_7_0 1.3677947663381929e-13
q_7_1 1.5399999999999989e+02
q_7_2 0
q_7_3 1.5400000000000014e+02
q_7_4 0
q_7_5 0
q_8_0 0
q_8_1 8.8000000000001052e+01
q_8_2 -3.4536817850047835e-11
q_8_3 8.8000000000022951e+01
q_8_4 4.4000000000011525e+01
q_8_5 0
q_9_0 0
q_9_1 -3.4397373838146450e-11
q_9_2 2.2500000000008541e+02
q_9_3 3.4151772319234462e-11
q_9_4 1.4999999999991476e+02
q_9_5 0
q_10_0 0
q_10_1 148
q_10_2 7.4000000000000014e+01
q_10_3 74.0000000000029
q_10_4 7.3999999999997272e+01
q_10_5 0
q_11_0 0
q_11_1 98
q_11_2 0
q_11_3 98
q_11_4 49
q_11_5 0
q_12_0 -6.3883359826281244e-13
q_12_1 66.0000000000013
q_12_2 -6.4637184493676614e-13
q_12_3 66
q_12_4 3.2999999999999979e+01
q_12_5 2.1316282072803006e-14
q_13_0 0
q_13_1 6.5476152386628919e-12
q_13_2 2.0699999999995728e+02
q_13_3 -3.0285220181946369e-12
q_13_4 1.3800000000000307e+02
q_13_5 0
q_14_0 0
q_14_1 134
q_14_2 6.7000000000000014e+01
q_14_3 0
q_14_4 134
q_14_5 0
q_15_0 1.5987211554602254e-14
q_15_1 3.5999999999999972e+01
q_15_2 -1.1361578344804002e-11
q_15_3 3.6000000000011369e+01
q_15_4 0
q_15_5 0
q_16_0 0
q_16_1 130
q_16_2 0
q_16_3 130
q_16_4 6.5000000000000028e+01
q_16_5 -2.8421709430404007e-14
q_17_0 0
q_17_1 120
q_17_2 0
q_17_3 0
q_17_4 180
q_17_5 0
q_18_0 0
q_18_1 96
q_18_2 48
q_18_3 0
q_18_4 96
q_18_5 0
q_19_0 0
q_19_1 114
q_19_2 57
q_19_3 0
q_19_4 114
q_19_5 0
q_20_0 0
q_20_1 9.9999999999999616e+01
q_20_2 1.6692869309054004e-11
q_20_3 9.9999999999967457e+01
q_20_4 5.0000000000016279e+01
q_20_5 -3.5527136788005009e-14
q_21_0 0
q_21_1 -7.7804429565730970e-12
q_21_2 1.4400000000001307e+02
q_21_3 4.7999999999994628e+01
q_21_4 -5.2544635309459409e-12
q_21_5 0
q_22_0 0
q_22_1 36
q_22_2 0
q_22_3 1.4052354299651694e-12
q_22_4 5.3999999999998629e+01
q_22_5 0
q_23_0 0
q_23_1 0
q_23_2 99
q_23_3 0
q_23_4 66
q_23_5 0
q_24_0 0
q_24_1 -4.9922467268788277e-12
q_24_2 1.0800000000000772e+02
q_24_3 3.6000000000001727e+01
q_24_4 -6.4090954765561037e-12
q_24_5 0
q_25_0 0
q_25_1 -1.4677725620247087e-11
q_25_2 93
q_25_3 7.3287359087401578e-12
q_25_4 6.2000000000000085e+01
q_25_5 7.2683414710778708e-12
y_0_0 0
y_0_1 1
y_0_2 1
y_0_3 1
y_0_4 1
y_0_5 0
y_1_0 0
y_1_1 9.9999999999999956e-01
y_1_2 -2.3558932582545822e-13
y_1_3 1.0000000000002354e+00
y_1_4 1.0000000000000009e+00
y_1_5 0
y_2_0 0
y_2_1 9.9999999999999989e-01
y_2_2 -1.9373391779708982e-13
y_2_3 1.0000000000001932e+00
y_2_4 1
y_2_5 0
y_3_0 0
y_3_1 1
y_3_2 0
y_3_3 1
y_3_4 1
y_3_5 0
y_4_0 0
y_4_1 0
y_4_2 1
y_4_3 0
y_4_4 1
y_4_5 0
y_5_0 3.4416913763379853e-15
y_5_1 1
y_5_2 -3.5527136788005009e-15
y_5_3 1
y_5_4 0
y_5_5 0
y_6_0 0
y_6_1 1
y_6_2 0
y_6_3 1
y_6_4 1.0000000000000013e+00
y_6_5 0
y_7_0 1.7763568394002505e-15
y_7_1 1
y_7_2 0
y_7_3 1
y_7_4 0
y_7_5 0
y_8_0 0
y_8_1 1.0000000000000113e+00
y_8_2 -2.6176283363106040e-13
y_8_3 1
y_8_4 1
y_8_5 0
y_9_0 0
y_9_1 -2.2920554343386357e-13
y_9_2 1.0000000000006812e+00
y_9_3 0
y_9_4 1.0000000000000004e+00
y_9_5 0
y_10_0 0
y_10_1 1
y_10_2 1
y_10_3 1.0000000000000395e+00
y_10_4 1.0000000000000027e+00
y_10_5 0
y_11_0 0
y_11_1 1
y_11_2 0
y_11_3 1
y_11_4 1
y_11_5 0
y_12_0 -1.9358593886751892e-14
y_12_1 1.0000000000000198e+00
y_12_2 2.2204460492503131e-16
y_12_3 1
y_12_4 9.9999999999999933e-01
y_12_5 0
y_13_0 0
y_13_1 4.7310072605084e-14
y_13_2 9.9999999999995326e-01
y_13_3 9.43689570931383e-16
y_13_4 1
y_13_5 0
y_14_0 0
y_14_1 9.9999999999999978e-01
y_14_2 1
y_14_3 0
y_14_4 1
y_14_5 0
y_15_0 8.8817841970012523e-16
y_15_1 1.0000000000000195e+00
y_15_2 2.2204460492503131e-16
y_15_3 9.9999999999999944e-01
y_15_4 0
y_15_5 0
y_16_0 0
y_16_1 1
y_16_2 0
y_16_3 1
y_16_4 1.0000000000000004e+00
y_16_5 0
y_17_0 0
y_17_1 1
y_17_2 0
y_17_3 0
y_17_4 1
y_17_5 0
y_18_0 0
y_18_1 1
y_18_2 1
y_18_3 0
y_18_4 1
y_18_5 0
y_19_0 0
y_19_1 1
y_19_2 1
y_19_3 0
y_19_4 1
y_19_5 0
y_20_0 0
y_20_1 9.9999999999999234e-01
y_20_2 3.26183524634871e-13
y_20_3 9.9999999999967515e-01
y_20_4 1.0000000000000007e+00
y_20_5 0
y_21_0 0
y_21_1 -9.0372154204487742e-14
y_21_2 1.0000000000000917e+00
y_21_3 1.0000000000001035e+00
y_21_4 -1.0952350137927169e-13
y_21_5 0
y_22_0 0
y_22_1 1
y_22_2 0
y_22_3 7.8068634998065033e-14
y_22_4 9.9999999999992284e-01
y_22_5 0
y_23_0 0
y_23_1 0
y_23_2 1
y_23_3 0
y_23_4 1
y_23_5 0
y_24_0 0
y_24_1 -6.9374527340319515e-14
y_24_2 1.0000000000000715e+00
y_24_3 1.0000000000000460e+00
y_24_4 -5.9285909514983359e-14
y_24_5 6.6890937233665682e-15
y_25_0 0
y_25_1 -2.3676616092074976e-13
y_25_2 1
y_25_3 0
y_25_4 1
y_25_5 0
x_0_1_0 0
x_0_1_1 0
x_0_1_2 0
x_0_1_3 0
x_0_1_4 0
x_0_1_5 0
x_0_2_0 0
x_0_2_1 0
x_0_2_2 0
x_0_2_3 0
x_0_2_4 0
x_0_2_5 0
x_0_3_0 0
x_0_3_1 0
x_0_3_2 0
x_0_3_3 0
x_0_3_4 0
x_0_3_5 0
x_0_4_0 0
x_0_4_1 0
x_0_4_2 0
x_0_4_3 0
x_0_4_4 0
x_0_4_5 0
x_0_5_0 0
x_0_5_1 0
x_0_5_2 0
x_0_5_3 0
x_0_5_4 0
x_0_5_5 0
x_0_6_0 0
x_0_6_1 0
x_0_6_2 0
x_0_6_3 0
x_0_6_4 0
x_0_6_5 0
x_0_7_0 0
x_0_7_1 1.0000000000005413e+00
x_0_7_2 0
x_0_7_3 9.9999999999986977e-01
x_0_7_4 0
x_0_7_5 0
x_0_8_0 0
x_0_8_1 0
x_0_8_2 0
x_0_8_3 0
x_0_8_4 0
x_0_8_5 0
x_0_9_0 0
x_0_9_1 0
x_0_9_2 1.0000000000006812e+00
x_0_9_3 0
x_0_9_4 1.0000000000000004e+00
x_0_9_5 0
x_0_10_0 0
x_0_10_1 9.9999999999977129e-01
x_0_10_2 9.9999999999947786e-01
x_0_10_3 1.0000000000001301e+00
x_0_10_4 1.0000000000000013e+00
x_0_10_5 0
x_0_11_0 0
x_0_11_1 0
x_0_11_2 0
x_0_11_3 0
x_0_11_4 0
x_0_11_5 0
x_0_12_0 0
x_0_12_1 0
x_0_12_2 0
x_0_12_3 0
x_0_12_4 0
x_0_12_5 0
x_0_13_0 0
x_0_13_1 0
x_0_13_2 0
x_0_13_3 0
x_0_13_4 0
x_0_13_5 0
x_0_14_0 0
x_0_14_1 0
x_0_14_2 0
x_0_14_3 0
x_0_14_4 0
x_0_14_5 0
x_0_15_0 0
x_0_15_1 0
x_0_15_2 0
x_0_15_3 0
x_0_15_4 0
x_0_15_5 0
x_0_16_0 0
x_0_16_1 0
x_0_16_2 0
x_0_16_3 0
x_0_16_4 0
x_0_16_5 0
x_0_17_0 0
x_0_17_1 0
x_0_17_2 0
x_0_17_3 0
x_0_17_4 0
x_0_17_5 0
x_0_18_0 0
x_0_18_1 0
x_0_18_2 0
x_0_18_3 0
x_0_18_4 0
x_0_18_5 0
x_0_19_0 0
x_0_19_1 0
x_0_19_2 0
x_0_19_3 0
x_0_19_4 0
x_0_19_5 0
x_0_20_0 0
x_0_20_1 0
x_0_20_2 0
x_0_20_3 0
x_0_20_4 0
x_0_20_5 0
x_0_21_0 0
x_0_21_1 3.1308289294429414e-14
x_0_21_2 -1.5965007094109751e-13
x_0_21_3 0
x_0_21_4 0
x_0_21_5 0
x_0_22_0 0
x_0_22_1 -3.4332779674803136e-13
x_0_22_2 0
x_0_22_3 0
x_0_22_4 0
x_0_22_5 0
x_0_23_0 0
x_0_23_1 0
x_0_23_2 0
x_0_23_3 0
x_0_23_4 0
x_0_23_5 0
x_0_24_0 0
x_0_24_1 0
x_0_24_2 0
x_0_24_3 0
x_0_24_4 0
x_0_24_5 0
x_0_25_0 0
x_0_25_1 0
x_0_25_2 0
x_0_25_3 0
x_0_25_4 0
x_0_25_5 0
x_1_2_0 0
x_1_2_1 0
x_1_2_2 0
x_1_2_3 0
x_1_2_4 0
x_1_2_5 0
x_1_3_0 0
x_1_3_1 0
x_1_3_2 0
x_1_3_3 0
x_1_3_4 0
x_1_3_5 0
x_1_4_0 0
x_1_4_1 0
x_1_4_2 0
x_1_4_3 0
x_1_4_4 0
x_1_4_5 0
x_1_5_0 0
x_1_5_1 0
x_1_5_2 0
x_1_5_3 0
x_1_5_4 0
x_1_5_5 0
x_1_6_0 -1.63202784619898e-14
x_1_6_1 1.0000000000000453e+00
x_1_6_2 0
x_1_6_3 1.0000000000002294e+00
x_1_6_4 1
x_1_6_5 0
x_1_7_0 0
x_1_7_1 0
x_1_7_2 0
x_1_7_3 0
x_1_7_4 0
x_1_7_5 0
x_1_8_0 0
x_1_8_1 1.0000000000000311e+00
x_1_8_2 -5.2335913380829879e-13
x_1_8_3 1.0000000000002294e+00
x_1_8_4 1
x_1_8_5 0
x_1_9_0 0
x_1_9_1 0
x_1_9_2 0
x_1_9_3 0
x_1_9_4 0
x_1_9_5 0
x_1_10_0 0
x_1_10_1 0
x_1_10_2 0
x_1_10_3 0
x_1_10_4 0
x_1_10_5 0
x_1_11_0 -1.7763568394002505e-15
x_1_11_1 4.7961634663806763e-14
x_1_11_2 0
x_1_11_3 0
x_1_11_4 0
x_1_11_5 0
x_1_12_0 0
x_1_12_1 0
x_1_12_2 0
x_1_12_3 0
x_1_12_4 0
x_1_12_5 0
x_1_13_0 0
x_1_13_1 0
x_1_13_2 0
x_1_13_3 0
x_1_13_4 0
x_1_13_5 0
x_1_14_0 0
x_1_14_1 0
x_1_14_2 0
x_1_14_3 0
x_1_14_4 0
x_1_14_5 0
x_1_15_0 0
x_1_15_1 0
x_1_15_2 0
x_1_15_3 0
x_1_15_4 0
x_1_15_5 0
x_1_16_0 0
x_1_16_1 0
x_1_16_2 0
x_1_16_3 0
x_1_16_4 0
x_1_16_5 0
x_1_17_0 0
x_1_17_1 0
x_1_17_2 0
x_1_17_3 0
x_1_17_4 0
x_1_17_5 0
x_1_18_0 0
x_1_18_1 0
x_1_18_2 -3.0414559759606163e-13
x_1_18_3 0
x_1_18_4 0
x_1_18_5 0
x_1_19_0 0
x_1_19_1 -1.2534417948018017e-13
x_1_19_2 -3.1585845050585704e-14
x_1_19_3 0
x_1_19_4 0
x_1_19_5 0
x_1_20_0 0
x_1_20_1 0
x_1_20_2 0
x_1_20_3 0
x_1_20_4 0
x_1_20_5 0
x_1_21_0 0
x_1_21_1 0
x_1_21_2 0
x_1_21_3 0
x_1_21_4 0
x_1_21_5 0
x_1_22_0 0
x_1_22_1 0
x_1_22_2 0
x_1_22_3 0
x_1_22_4 0
x_1_22_5 0
x_1_23_0 0
x_1_23_1 0
x_1_23_2 3.8691272408186705e-13
x_1_23_3 0
x_1_23_4 0
x_1_23_5 0
x_1_24_0 0
x_1_24_1 0
x_1_24_2 0
x_1_24_3 0
x_1_24_4 0
x_1_24_5 0
x_1_25_0 0
x_1_25_1 0
x_1_25_2 0
x_1_25_3 0
x_1_25_4 0
x_1_25_5 0
x_2_3_0 0
x_2_3_1 9.9999999999999989e-01
x_2_3_2 0
x_2_3_3 1.0000000000001932e+00
x_2_3_4 1
x_2_3_5 0
x_2_4_0 0
x_2_4_1 0
x_2_4_2 -1.04549702228951e-12
x_2_4_3 0
x_2_4_4 0
x_2_4_5 0
x_2_5_0 0
x_2_5_1 0
x_2_5_2 0
x_2_5_3 0
x_2_5_4 0
x_2_5_5 0
x_2_6_0 0
x_2_6_1 0
x_2_6_2 0
x_2_6_3 0
x_2_6_4 0
x_2_6_5 0
x_2_7_0 0
x_2_7_1 0
x_2_7_2 0
x_2_7_3 0
x_2_7_4 0
x_2_7_5 0
x_2_8_0 0
x_2_8_1 -3.9506960270149996e-13
x_2_8_2 -2.6176283363106040e-13
x_2_8_3 0
x_2_8_4 0
x_2_8_5 0
x_2_9_0 0
x_2_9_1 0
x_2_9_2 0
x_2_9_3 0
x_2_9_4 0
x_2_9_5 0
x_2_10_0 0
x_2_10_1 0
x_2_10_2 0
x_2_10_3 0
x_2_10_4 0
x_2_10_5 0
x_2_11_0 0
x_2_11_1 1.0000000000003484e+00
x_2_11_2 0
x_2_11_3 1.0000000000001932e+00
x_2_11_4 1
x_2_11_5 0
x_2_12_0 0
x_2_12_1 0
x_2_12_2 0
x_2_12_3 0
x_2_12_4 0
x_2_12_5 0
x_2_13_0 0
x_2_13_1 -4.6802839381854255e-15
x_2_13_2 0
x_2_13_3 9.43689570931383e-16
x_2_13_4 0
x_2_13_5 0
x_2_14_0 0
x_2_14_1 0
x_2_14_2 0
x_2_14_3 0
x_2_14_4 0
x_2_14_5 0
x_2_15_0 0
x_2_15_1 0
x_2_15_2 0
x_2_15_3 0
x_2_15_4 0
x_2_15_5 0
x_2_16_0 0
x_2_16_1 0
x_2_16_2 0
x_2_16_3 0
x_2_16_4 0
x_2_16_5 0
x_2_17_0 0
x_2_17_1 0
x_2_17_2 0
x_2_17_3 0
x_2_17_4 0
x_2_17_5 0
x_2_18_0 0
x_2_18_1 0
x_2_18_2 0
x_2_18_3 0
x_2_18_4 0
x_2_18_5 0
x_2_19_0 0
x_2_19_1 0
x_2_19_2 0
x_2_19_3 0
x_2_19_4 0
x_2_19_5 0
x_2_20_0 0
x_2_20_1 0
x_2_20_2 0
x_2_20_3 0
x_2_20_4 0
x_2_20_5 0
x_2_21_0 0
x_2_21_1 0
x_2_21_2 0
x_2_21_3 0
x_2_21_4 0
x_2_21_5 0
x_2_22_0 0
x_2_22_1 0
x_2_22_2 0
x_2_22_3 0
x_2_22_4 0
x_2_22_5 0
x_2_23_0 0
x_2_23_1 0
x_2_23_2 0
x_2_23_3 0
x_2_23_4 0
x_2_23_5 0
x_2_24_0 0
x_2_24_1 0
x_2_24_2 0
x_2_24_3 0
x_2_24_4 0
x_2_24_5 0
x_2_25_0 0
x_2_25_1 0
x_2_25_2 0
x_2_25_3 0
x_2_25_4 0
x_2_25_5 0
x_3_4_0 0
x_3_4_1 0
x_3_4_2 0
x_3_4_3 0
x_3_4_4 0
x_3_4_5 0
x_3_5_0 0
x_3_5_1 0
x_3_5_2 0
x_3_5_3 0
x_3_5_4 0
x_3_5_5 0
x_3_6_0 0
x_3_6_1 0
x_3_6_2 0
x_3_6_3 0
x_3_6_4 0
x_3_6_5 0
x_3_7_0 0
x_3_7_1 0
x_3_7_2 0
x_3_7_3 0
x_3_7_4 0
x_3_7_5 0
x_3_8_0 0
x_3_8_1 1.0000000000004061e+00
x_3_8_2 0
x_3_8_3 1
x_3_8_4 1
x_3_8_5 0
x_3_9_0 0
x_3_9_1 0
x_3_9_2 0
x_3_9_3 0
x_3_9_4 0
x_3_9_5 0
x_3_10_0 0
x_3_10_1 0
x_3_10_2 0
x_3_10_3 0
x_3_10_4 0
x_3_10_5 0
x_3_11_0 0
x_3_11_1 -4.0622734409898278e-13
x_3_11_2 0
x_3_11_3 -1.9262369477246466e-13
x_3_11_4 0
x_3_11_5 0
x_3_12_0 0
x_3_12_1 0
x_3_12_2 0
x_3_12_3 0
x_3_12_4 0
x_3_12_5 0
x_3_13_0 0
x_3_13_1 0
x_3_13_2 0
x_3_13_3 0
x_3_13_4 0
x_3_13_5 0
x_3_14_0 0
x_3_14_1 0
x_3_14_2 0
x_3_14_3 0
x_3_14_4 0
x_3_14_5 0
x_3_15_0 0
x_3_15_1 0
x_3_15_2 0
x_3_15_3 0
x_3_15_4 0
x_3_15_5 0
x_3_16_0 0
x_3_16_1 0
x_3_16_2 0
x_3_16_3 0
x_3_16_4 0
x_3_16_5 0
x_3_17_0 0
x_3_17_1 0
x_3_17_2 0
x_3_17_3 0
x_3_17_4 0
x_3_17_5 0
x_3_18_0 0
x_3_18_1 0
x_3_18_2 0
x_3_18_3 0
x_3_18_4 0
x_3_18_5 0
x_3_19_0 0
x_3_19_1 0
x_3_19_2 0
x_3_19_3 0
x_3_19_4 0
x_3_19_5 0
x_3_20_0 0
x_3_20_1 0
x_3_20_2 0
x_3_20_3 0
x_3_20_4 0
x_3_20_5 0
x_3_21_0 0
x_3_21_1 0
x_3_21_2 0
x_3_21_3 0
x_3_21_4 0
x_3_21_5 0
x_3_22_0 0
x_3_22_1 0
x_3_22_2 0
x_3_22_3 0
x_3_22_4 0
x_3_22_5 0
x_3_23_0 0
x_3_23_1 0
x_3_23_2 0
x_3_23_3 0
x_3_23_4 0
x_3_23_5 0
x_3_24_0 0
x_3_24_1 0
x_3_24_2 0
x_3_24_3 0
x_3_24_4 0
x_3_24_5 0
x_3_25_0 0
x_3_25_1 0
x_3_25_2 0
x_3_25_3 0
x_3_25_4 0
x_3_25_5 0
x_4_5_0 0
x_4_5_1 0
x_4_5_2 0
x_4_5_3 0
x_4_5_4 0
x_4_5_5 0
x_4_6_0 0
x_4_6_1 0
x_4_6_2 0
x_4_6_3 0
x_4_6_4 0
x_4_6_5 0
x_4_7_0 0
x_4_7_1 0
x_4_7_2 0
x_4_7_3 0
x_4_7_4 0
x_4_7_5 0
x_4_8_0 0
x_4_8_1 0
x_4_8_2 0
x_4_8_3 0
x_4_8_4 0
x_4_8_5 0
x_4_9_0 0
x_4_9_1 0
x_4_9_2 0
x_4_9_3 0
x_4_9_4 0
x_4_9_5 0
x_4_10_0 0
x_4_10_1 0
x_4_10_2 0
x_4_10_3 0
x_4_10_4 0
x_4_10_5 0
x_4_11_0 0
x_4_11_1 0
x_4_11_2 0
x_4_11_3 0
x_4_11_4 0
x_4_11_5 0
x_4_12_0 0
x_4_12_1 0
x_4_12_2 0
x_4_12_3 0
x_4_12_4 0
x_4_12_5 0
x_4_13_0 0
x_4_13_1 0
x_4_13_2 1.0000000000000493e+00
x_4_13_3 0
x_4_13_4 1.0000000000000009e+00
x_4_13_5 0
x_4_14_0 0
x_4_14_1 0
x_4_14_2 0
x_4_14_3 0
x_4_14_4 0
x_4_14_5 0
x_4_15_0 0
x_4_15_1 0
x_4_15_2 0
x_4_15_3 0
x_4_15_4 0
x_4_15_5 0
x_4_16_0 0
x_4_16_1 0
x_4_16_2 0
x_4_16_3 0
x_4_16_4 0
x_4_16_5 0
x_4_17_0 0
x_4_17_1 0
x_4_17_2 0
x_4_17_3 0
x_4_17_4 9.43689570931383e-16
x_4_17_5 0
x_4_18_0 0
x_4_18_1 0
x_4_18_2 1.0000000000008518e+00
x_4_18_3 0
x_4_18_4 1
x_4_18_5 0
x_4_19_0 0
x_4_19_1 0
x_4_19_2 -3.7364555893759643e-13
x_4_19_3 0
x_4_19_4 0
x_4_19_5 0
x_4_20_0 0
x_4_20_1 0
x_4_20_2 0
x_4_20_3 0
x_4_20_4 0
x_4_20_5 0
x_4_21_0 0
x_4_21_1 0
x_4_21_2 0
x_4_21_3 0
x_4_21_4 0
x_4_21_5 0
x_4_22_0 0
x_4_22_1 0
x_4_22_2 0
x_4_22_3 0
x_4_22_4 0
x_4_22_5 0
x_4_23_0 0
x_4_23_1 0
x_4_23_2 0
x_4_23_3 0
x_4_23_4 0
x_4_23_5 0
x_4_24_0 0
x_4_24_1 0
x_4_24_2 0
x_4_24_3 0
x_4_24_4 0
x_4_24_5 0
x_4_25_0 0
x_4_25_1 0
x_4_25_2 0
x_4_25_3 0
x_4_25_4 0
x_4_25_5 0
x_5_6_0 0
x_5_6_1 0
x_5_6_2 0
x_5_6_3 0
x_5_6_4 0
x_5_6_5 0
x_5_7_0 3.5527136788005009e-15
x_5_7_1 1
x_5_7_2 0
x_5_7_3 1
x_5_7_4 0
x_5_7_5 0
x_5_8_0 0
x_5_8_1 0
x_5_8_2 0
x_5_8_3 0
x_5_8_4 0
x_5_8_5 0
x_5_9_0 1.7208456881689926e-15
x_5_9_1 0
x_5_9_2 0
x_5_9_3 1.5182299861749016e-13
x_5_9_4 0
x_5_9_5 0
x_5_10_0 0
x_5_10_1 0
x_5_10_2 0
x_5_10_3 0
x_5_10_4 0
x_5_10_5 0
x_5_11_0 0
x_5_11_1 0
x_5_11_2 0
x_5_11_3 0
x_5_11_4 0
x_5_11_5 0
x_5_12_0 0
x_5_12_1 0
x_5_12_2 0
x_5_12_3 0
x_5_12_4 0
x_5_12_5 0
x_5_13_0 0
x_5_13_1 0
x_5_13_2 0
x_5_13_3 0
x_5_13_4 0
x_5_13_5 0
x_5_14_0 0
x_5_14_1 0
x_5_14_2 0
x_5_14_3 0
x_5_14_4 0
x_5_14_5 0
x_5_15_0 0
x_5_15_1 0
x_5_15_2 0
x_5_15_3 0
x_5_15_4 0
x_5_15_5 0
x_5_16_0 1.8873791418627661e-15
x_5_16_1 1
x_5_16_2 0
x_5_16_3 9.9999999999971656e-01
x_5_16_4 0
x_5_16_5 0
x_5_17_0 0
x_5_17_1 0
x_5_17_2 0
x_5_17_3 0
x_5_17_4 0
x_5_17_5 0
x_5_18_0 0
x_5_18_1 0
x_5_18_2 0
x_5_18_3 0
x_5_18_4 0
x_5_18_5 0
x_5_19_0 0
x_5_19_1 0
x_5_19_2 0
x_5_19_3 0
x_5_19_4 0
x_5_19_5 0
x_5_20_0 -5.5511151231257827e-17
x_5_20_1 0
x_5_20_2 0
x_5_20_3 1.3006262733483709e-13
x_5_20_4 0
x_5_20_5 0
x_5_21_0 0
x_5_21_1 0
x_5_21_2 0
x_5_21_3 0
x_5_21_4 0
x_5_21_5 0
x_5_22_0 0
x_5_22_1 0
x_5_22_2 0
x_5_22_3 0
x_5_22_4 0
x_5_22_5 0
x_5_23_0 0
x_5_23_1 0
x_5_23_2 -6.8833827526759706e-15
x_5_23_3 0
x_5_23_4 0
x_5_23_5 0
x_5_24_0 0
x_5_24_1 0
x_5_24_2 0
x_5_24_3 0
x_5_24_4 0
x_5_24_5 0
x_5_25_0 0
x_5_25_1 0
x_5_25_2 0
x_5_25_3 0
x_5_25_4 0
x_5_25_5 0
x_6_7_0 0
x_6_7_1 0
x_6_7_2 0
x_6_7_3 0
x_6_7_4 0
x_6_7_5 0
x_6_8_0 0
x_6_8_1 0
x_6_8_2 0
x_6_8_3 -9.08162434143378e-13
x_6_8_4 0
x_6_8_5 0
x_6_9_0 0
x_6_9_1 0
x_6_9_2 0
x_6_9_3 -1.9106938253798944e-13
x_6_9_4 0
x_6_9_5 0
x_6_10_0 0
x_6_10_1 0
x_6_10_2 0
x_6_10_3 0
x_6_10_4 0
x_6_10_5 0
x_6_11_0 0
x_6_11_1 0
x_6_11_2 0
x_6_11_3 0
x_6_11_4 0
x_6_11_5 0
x_6_12_0 0
x_6_12_1 0
x_6_12_2 0
x_6_12_3 0
x_6_12_4 0
x_6_12_5 0
x_6_13_0 0
x_6_13_1 0
x_6_13_2 0
x_6_13_3 0
x_6_13_4 0
x_6_13_5 0
x_6_14_0 0
x_6_14_1 0
x_6_14_2 0
x_6_14_3 0
x_6_14_4 0
x_6_14_5 0
x_6_15_0 0
x_6_15_1 0
x_6_15_2 0
x_6_15_3 7.3452355309200357e-13
x_6_15_4 0
x_6_15_5 0
x_6_16_0 0
x_6_16_1 0
x_6_16_2 0
x_6_16_3 0
x_6_16_4 0
x_6_16_5 0
x_6_17_0 0
x_6_17_1 0
x_6_17_2 0
x_6_17_3 0
x_6_17_4 0
x_6_17_5 0
x_6_18_0 0
x_6_18_1 0
x_6_18_2 0
x_6_18_3 0
x_6_18_4 0
x_6_18_5 0
x_6_19_0 0
x_6_19_1 1
x_6_19_2 0
x_6_19_3 0
x_6_19_4 1.0000000000000617e+00
x_6_19_5 -6.6890937233665682e-15
x_6_20_0 0
x_6_20_1 0
x_6_20_2 0
x_6_20_3 0
x_6_20_4 0
x_6_20_5 0
x_6_21_0 0
x_6_21_1 0
x_6_21_2 0
x_6_21_3 7.6287532104473947e-14
x_6_21_4 0
x_6_21_5 0
x_6_22_0 0
x_6_22_1 0
x_6_22_2 0
x_6_22_3 0
x_6_22_4 0
x_6_22_5 0
x_6_23_0 0
x_6_23_1 -5.2652326942848049e-14
x_6_23_2 0
x_6_23_3 0
x_6_23_4 0
x_6_23_5 0
x_6_24_0 1.6209256159527285e-14
x_6_24_1 0
x_6_24_2 0
x_6_24_3 1.0000000000000460e+00
x_6_24_4 -5.9341420666214617e-14
x_6_24_5 6.6890937233665682e-15
x_6_25_0 0
x_6_25_1 0
x_6_25_2 0
x_6_25_3 0
x_6_25_4 0
x_6_25_5 0
x_7_8_0 0
x_7_8_1 0
x_7_8_2 0
x_7_8_3 0
x_7_8_4 0
x_7_8_5 0
x_7_9_0 0
x_7_9_1 -2.82052159406021e-13
x_7_9_2 0
x_7_9_3 0
x_7_9_4 0
x_7_9_5 0
x_7_10_0 0
x_7_10_1 0
x_7_10_2 0
x_7_10_3 0
x_7_10_4 0
x_7_10_5 0
x_7_11_0 0
x_7_11_1 0
x_7_11_2 0
x_7_11_3 0
x_7_11_4 0
x_7_11_5 0
x_7_12_0 0
x_7_12_1 0
x_7_12_2 0
x_7_12_3 0
x_7_12_4 0
x_7_12_5 0
x_7_13_0 0
x_7_13_1 0
x_7_13_2 0
x_7_13_3 0
x_7_13_4 0
x_7_13_5 0
x_7_14_0 0
x_7_14_1 0
x_7_14_2 0
x_7_14_3 0
x_7_14_4 0
x_7_14_5 0
x_7_15_0 0
x_7_15_1 0
x_7_15_2 0
x_7_15_3 0
x_7_15_4 0
x_7_15_5 0
x_7_16_0 0
x_7_16_1 -3.2807090377673376e-14
x_7_16_2 0
x_7_16_3 1.3011813848606835e-13
x_7_16_4 0
x_7_16_5 0
x_7_17_0 0
x_7_17_1 0
x_7_17_2 0
x_7_17_3 0
x_7_17_4 0
x_7_17_5 0
x_7_18_0 0
x_7_18_1 0
x_7_18_2 0
x_7_18_3 0
x_7_18_4 0
x_7_18_5 0
x_7_19_0 0
x_7_19_1 0
x_7_19_2 0
x_7_19_3 0
x_7_19_4 0
x_7_19_5 0
x_7_20_0 0
x_7_20_1 0
x_7_20_2 0
x_7_20_3 0
x_7_20_4 0
x_7_20_5 0
x_7_21_0 0
x_7_21_1 -2.8077540292770209e-13
x_7_21_2 0
x_7_21_3 0
x_7_21_4 0
x_7_21_5 0
x_7_22_0 0
x_7_22_1 0
x_7_22_2 0
x_7_22_3 0
x_7_22_4 0
x_7_22_5 0
x_7_23_0 0
x_7_23_1 5.2652326942848049e-14
x_7_23_2 0
x_7_23_3 0
x_7_23_4 0
x_7_23_5 0
x_7_24_0 0
x_7_24_1 0
x_7_24_2 0
x_7_24_3 0
x_7_24_4 0
x_7_24_5 0
x_7_25_0 0
x_7_25_1 0
x_7_25_2 0
x_7_25_3 0
x_7_25_4 0
x_7_25_5 0
x_8_9_0 0
x_8_9_1 0
x_8_9_2 0
x_8_9_3 0
x_8_9_4 0
x_8_9_5 0
x_8_10_0 0
x_8_10_1 0
x_8_10_2 0
x_8_10_3 0
x_8_10_4 0
x_8_10_5 0
x_8_11_0 0
x_8_11_1 0
x_8_11_2 0
x_8_11_3 0
x_8_11_4 0
x_8_11_5 0
x_8_12_0 0
x_8_12_1 0
x_8_12_2 0
x_8_12_3 0
x_8_12_4 0
x_8_12_5 0
x_8_13_0 0
x_8_13_1 0
x_8_13_2 0
x_8_13_3 0
x_8_13_4 0
x_8_13_5 0
x_8_14_0 0
x_8_14_1 0
x_8_14_2 0
x_8_14_3 0
x_8_14_4 0
x_8_14_5 0
x_8_15_0 0
x_8_15_1 0
x_8_15_2 0
x_8_15_3 0
x_8_15_4 0
x_8_15_5 0
x_8_16_0 0
x_8_16_1 0
x_8_16_2 0
x_8_16_3 0
x_8_16_4 0
x_8_16_5 0
x_8_17_0 0
x_8_17_1 0
x_8_17_2 0
x_8_17_3 0
x_8_17_4 0
x_8_17_5 0
x_8_18_0 0
x_8_18_1 0
x_8_18_2 0
x_8_18_3 0
x_8_18_4 0
x_8_18_5 0
x_8_19_0 0
x_8_19_1 0
x_8_19_2 2.9543034685275416e-13
x_8_19_3 0
x_8_19_4 0
x_8_19_5 0
x_8_20_0 0
x_8_20_1 0
x_8_20_2 0
x_8_20_3 0
x_8_20_4 0
x_8_20_5 0
x_8_21_0 0
x_8_21_1 0
x_8_21_2 0
x_8_21_3 0
x_8_21_4 0
x_8_21_5 0
x_8_22_0 0
x_8_22_1 0
x_8_22_2 0
x_8_22_3 0
x_8_22_4 0
x_8_22_5 0
x_8_23_0 0
x_8_23_1 0
x_8_23_2 0
x_8_23_3 0
x_8_23_4 0
x_8_23_5 0
x_8_24_0 0
x_8_24_1 0
x_8_24_2 0
x_8_24_3 6.7101879608344461e-13
x_8_24_4 0
x_8_24_5 0
x_8_25_0 0
x_8_25_1 0
x_8_25_2 0
x_8_25_3 0
x_8_25_4 0
x_8_25_5 0
x_9_10_0 0
x_9_10_1 0
x_9_10_2 0
x_9_10_3 0
x_9_10_4 0
x_9_10_5 0
x_9_11_0 0
x_9_11_1 0
x_9_11_2 0
x_9_11_3 0
x_9_11_4 0
x_9_11_5 0
x_9_12_0 0
x_9_12_1 0
x_9_12_2 0
x_9_12_3 0
x_9_12_4 0
x_9_12_5 0
x_9_13_0 0
x_9_13_1 0
x_9_13_2 0
x_9_13_3 0
x_9_13_4 0
x_9_13_5 0
x_9_14_0 0
x_9_14_1 0
x_9_14_2 0
x_9_14_3 0
x_9_14_4 0
x_9_14_5 0
x_9_15_0 0
x_9_15_1 0
x_9_15_2 0
x_9_15_3 0
x_9_15_4 0
x_9_15_5 0
x_9_16_0 0
x_9_16_1 0
x_9_16_2 0
x_9_16_3 -8.3266726846886741e-16
x_9_16_4 0
x_9_16_5 0
x_9_17_0 0
x_9_17_1 0
x_9_17_2 0
x_9_17_3 0
x_9_17_4 0
x_9_17_5 0
x_9_18_0 0
x_9_18_1 0
x_9_18_2 0
x_9_18_3 0
x_9_18_4 0
x_9_18_5 0
x_9_19_0 0
x_9_19_1 0
x_9_19_2 0
x_9_19_3 0
x_9_19_4 0
x_9_19_5 0
x_9_20_0 0
x_9_20_1 0
x_9_20_2 0
x_9_20_3 0
x_9_20_4 0
x_9_20_5 0
x_9_21_0 0
x_9_21_1 -1.2173595465014841e-13
x_9_21_2 0
x_9_21_3 0
x_9_21_4 0
x_9_21_5 0
x_9_22_0 0
x_9_22_1 0
x_9_22_2 0
x_9_22_3 0
x_9_22_4 0
x_9_22_5 0
x_9_23_0 0
x_9_23_1 0
x_9_23_2 1.0000000000006812e+00
x_9_23_3 0
x_9_23_4 1.0000000000000004e+00
x_9_23_5 0
x_9_24_0 -1.7208456881689926e-15
x_9_24_1 -7.8839712536193929e-14
x_9_24_2 0
x_9_24_3 -1.7763568394002505e-15
x_9_24_4 0
x_9_24_5 0
x_9_25_0 0
x_9_25_1 0
x_9_25_2 0
x_9_25_3 0
x_9_25_4 0
x_9_25_5 0
x_10_11_0 0
x_10_11_1 0
x_10_11_2 0
x_10_11_3 0
x_10_11_4 0
x_10_11_5 0
x_10_12_0 0
x_10_12_1 0
x_10_12_2 0
x_10_12_3 0
x_10_12_4 0
x_10_12_5 0
x_10_13_0 0
x_10_13_1 0
x_10_13_2 0
x_10_13_3 0
x_10_13_4 0
x_10_13_5 0
x_10_14_0 0
x_10_14_1 0
x_10_14_2 0
x_10_14_3 0
x_10_14_4 0
x_10_14_5 0
x_10_15_0 0
x_10_15_1 0
x_10_15_2 0
x_10_15_3 0
x_10_15_4 0
x_10_15_5 0
x_10_16_0 0
x_10_16_1 0
x_10_16_2 0
x_10_16_3 0
x_10_16_4 0
x_10_16_5 0
x_10_17_0 0
x_10_17_1 0
x_10_17_2 0
x_10_17_3 0
x_10_17_4 0
x_10_17_5 0
x_10_18_0 0
x_10_18_1 0
x_10_18_2 0
x_10_18_3 0
x_10_18_4 0
x_10_18_5 0
x_10_19_0 0
x_10_19_1 0
x_10_19_2 0
x_10_19_3 0
x_10_19_4 0
x_10_19_5 0
x_10_20_0 0
x_10_20_1 0
x_10_20_2 0
x_10_20_3 0
x_10_20_4 0
x_10_20_5 0
x_10_21_0 0
x_10_21_1 0
x_10_21_2 1.0000000000005220e+00
x_10_21_3 9.9999999999994871e-01
x_10_21_4 -1.0952350137927169e-13
x_10_21_5 0
x_10_22_0 0
x_10_22_1 1.0000000000002287e+00
x_10_22_2 0
x_10_22_3 0
x_10_22_4 0
x_10_22_5 0
x_10_23_0 0
x_10_23_1 0
x_10_23_2 0
x_10_23_3 0
x_10_23_4 0
x_10_23_5 0
x_10_24_0 0
x_10_24_1 0
x_10_24_2 0
x_10_24_3 0
x_10_24_4 0
x_10_24_5 0
x_10_25_0 0
x_10_25_1 0
x_10_25_2 0
x_10_25_3 0
x_10_25_4 1.0000000000001097e+00
x_10_25_5 0
x_11_12_0 0
x_11_12_1 -4.8752668568852187e-14
x_11_12_2 -2.2204460492503131e-16
x_11_12_3 5.4134474680722633e-13
x_11_12_4 1
x_11_12_5 0
x_11_13_0 0
x_11_13_1 0
x_11_13_2 0
x_11_13_3 0
x_11_13_4 0
x_11_13_5 0
x_11_14_0 0
x_11_14_1 0
x_11_14_2 0
x_11_14_3 0
x_11_14_4 0
x_11_14_5 0
x_11_15_0 1.7763568394002505e-15
x_11_15_1 9.9999999999999933e-01
x_11_15_2 6.5192296005989192e-13
x_11_15_3 9.9999999999945910e-01
x_11_15_4 0
x_11_15_5 0
x_11_16_0 0
x_11_16_1 0
x_11_16_2 0
x_11_16_3 0
x_11_16_4 0
x_11_16_5 0
x_11_17_0 0
x_11_17_1 0
x_11_17_2 0
x_11_17_3 0
x_11_17_4 0
x_11_17_5 0
x_11_18_0 0
x_11_18_1 0
x_11_18_2 0
x_11_18_3 0
x_11_18_4 0
x_11_18_5 0
x_11_19_0 0
x_11_19_1 0
x_11_19_2 0
x_11_19_3 0
x_11_19_4 0
x_11_19_5 0
x_11_20_0 0
x_11_20_1 0
x_11_20_2 0
x_11_20_3 0
x_11_20_4 0
x_11_20_5 0
x_11_21_0 0
x_11_21_1 0
x_11_21_2 0
x_11_21_3 0
x_11_21_4 0
x_11_21_5 0
x_11_22_0 0
x_11_22_1 0
x_11_22_2 0
x_11_22_3 0
x_11_22_4 0
x_11_22_5 0
x_11_23_0 0
x_11_23_1 0
x_11_23_2 -6.5192296005989192e-13
x_11_23_3 0
x_11_23_4 0
x_11_23_5 0
x_11_24_0 0
x_11_24_1 0
x_11_24_2 0
x_11_24_3 0
x_11_24_4 0
x_11_24_5 0
x_11_25_0 0
x_11_25_1 0
x_11_25_2 0
x_11_25_3 0
x_11_25_4 0
x_11_25_5 0
x_12_13_0 0
x_12_13_1 0
x_12_13_2 0
x_12_13_3 0
x_12_13_4 0
x_12_13_5 0
x_12_14_0 0
x_12_14_1 0
x_12_14_2 0
x_12_14_3 0
x_12_14_4 0
x_12_14_5 0
x_12_15_0 0
x_12_15_1 1.0000000000000990e+00
x_12_15_2 -6.5147887085004186e-13
x_12_15_3 9.9999999999980571e-01
x_12_15_4 0
x_12_15_5 0
x_12_16_0 0
x_12_16_1 1.4890866317784912e-14
x_12_16_2 0
x_12_16_3 6.5014660322049167e-13
x_12_16_4 0
x_12_16_5 0
x_12_17_0 0
x_12_17_1 0
x_12_17_2 0
x_12_17_3 0
x_12_17_4 0
x_12_17_5 0
x_12_18_0 0
x_12_18_1 0
x_12_18_2 0
x_12_18_3 0
x_12_18_4 0
x_12_18_5 0
x_12_19_0 0
x_12_19_1 0
x_12_19_2 0
x_12_19_3 0
x_12_19_4 0
x_12_19_5 0
x_12_20_0 1.7763568394002505e-15
x_12_20_1 9.9999999999996891e-01
x_12_20_2 6.5192296005989192e-13
x_12_20_3 9.9999999999906741e-01
x_12_20_4 1.0000000000000007e+00
x_12_20_5 0
x_12_21_0 0
x_12_21_1 0
x_12_21_2 0
x_12_21_3 0
x_12_21_4 0
x_12_21_5 0
x_12_22_0 0
x_12_22_1 0
x_12_22_2 0
x_12_22_3 0
x_12_22_4 0
x_12_22_5 0
x_12_23_0 0
x_12_23_1 0
x_12_23_2 0
x_12_23_3 0
x_12_23_4 0
x_12_23_5 0
x_12_24_0 0
x_12_24_1 0
x_12_24_2 0
x_12_24_3 0
x_12_24_4 0
x_12_24_5 0
x_12_25_0 0
x_12_25_1 0
x_12_25_2 0
x_12_25_3 0
x_12_25_4 0
x_12_25_5 0
x_13_14_0 0
x_13_14_1 -4.5137504844916521e-15
x_13_14_2 9.9999999999995060e-01
x_13_14_3 0
x_13_14_4 0
x_13_14_5 0
x_13_15_0 0
x_13_15_1 0
x_13_15_2 0
x_13_15_3 0
x_13_15_4 0
x_13_15_5 0
x_13_16_0 0
x_13_16_1 0
x_13_16_2 0
x_13_16_3 0
x_13_16_4 0
x_13_16_5 0
x_13_17_0 0
x_13_17_1 0
x_13_17_2 0
x_13_17_3 9.43689570931383e-16
x_13_17_4 9.9999999999999978e-01
x_13_17_5 0
x_13_18_0 0
x_13_18_1 0
x_13_18_2 0
x_13_18_3 0
x_13_18_4 0
x_13_18_5 0
x_13_19_0 0
x_13_19_1 0
x_13_19_2 0
x_13_19_3 0
x_13_19_4 0
x_13_19_5 0
x_13_20_0 0
x_13_20_1 0
x_13_20_2 0
x_13_20_3 0
x_13_20_4 0
x_13_20_5 0
x_13_21_0 0
x_13_21_1 0
x_13_21_2 0
x_13_21_3 0
x_13_21_4 0
x_13_21_5 0
x_13_22_0 0
x_13_22_1 0
x_13_22_2 0
x_13_22_3 0
x_13_22_4 0
x_13_22_5 0
x_13_23_0 0
x_13_23_1 0
x_13_23_2 0
x_13_23_3 0
x_13_23_4 0
x_13_23_5 0
x_13_24_0 0
x_13_24_1 0
x_13_24_2 0
x_13_24_3 0
x_13_24_4 0
x_13_24_5 0
x_13_25_0 0
x_13_25_1 0
x_13_25_2 0
x_13_25_3 0
x_13_25_4 0
x_13_25_5 0
x_14_15_0 0
x_14_15_1 0
x_14_15_2 0
x_14_15_3 0
x_14_15_4 0
x_14_15_5 0
x_14_16_0 0
x_14_16_1 0
x_14_16_2 0
x_14_16_3 0
x_14_16_4 0
x_14_16_5 0
x_14_17_0 0
x_14_17_1 1
x_14_17_2 0
x_14_17_3 0
x_14_17_4 1
x_14_17_5 0
x_14_18_0 0
x_14_18_1 -6.3754557189099614e-14
x_14_18_2 -5.4722892883773966e-13
x_14_18_3 0
x_14_18_4 0
x_14_18_5 0
x_14_19_0 0
x_14_19_1 1.0447198661722723e-13
x_14_19_2 0
x_14_19_3 0
x_14_19_4 0
x_14_19_5 0
x_14_20_0 0
x_14_20_1 0
x_14_20_2 0
x_14_20_3 0
x_14_20_4 0
x_14_20_5 0
x_14_21_0 0
x_14_21_1 0
x_14_21_2 0
x_14_21_3 0
x_14_21_4 0
x_14_21_5 0
x_14_22_0 0
x_14_22_1 1
x_14_22_2 0
x_14_22_3 0
x_14_22_4 9.9999999999992284e-01
x_14_22_5 0
x_14_23_0 0
x_14_23_1 0
x_14_23_2 0
x_14_23_3 0
x_14_23_4 0
x_14_23_5 0
x_14_24_0 0
x_14_24_1 -7.0055072853847378e-14
x_14_24_2 2.8732571877299051e-13
x_14_24_3 0
x_14_24_4 0
x_14_24_5 0
x_14_25_0 0
x_14_25_1 -3.6543311112188289e-13
x_14_25_2 1.0000000000005334e+00
x_14_25_3 0
x_14_25_4 7.8068634998065033e-14
x_14_25_5 0
x_15_16_0 0
x_15_16_1 -8.2642226395535090e-14
x_15_16_2 0
x_15_16_3 0
x_15_16_4 0
x_15_16_5 0
x_15_17_0 0
x_15_17_1 0
x_15_17_2 0
x_15_17_3 0
x_15_17_4 0
x_15_17_5 0
x_15_18_0 0
x_15_18_1 0
x_15_18_2 0
x_15_18_3 0
x_15_18_4 0
x_15_18_5 0
x_15_19_0 0
x_15_19_1 0
x_15_19_2 0
x_15_19_3 0
x_15_19_4 0
x_15_19_5 0
x_15_20_0 0
x_15_20_1 0
x_15_20_2 0
x_15_20_3 0
x_15_20_4 0
x_15_20_5 0
x_15_21_0 0
x_15_21_1 0
x_15_21_2 0
x_15_21_3 0
x_15_21_4 0
x_15_21_5 0
x_15_22_0 0
x_15_22_1 0
x_15_22_2 0
x_15_22_3 0
x_15_22_4 0
x_15_22_5 0
x_15_23_0 0
x_15_23_1 0
x_15_23_2 0
x_15_23_3 0
x_15_23_4 0
x_15_23_5 0
x_15_24_0 0
x_15_24_1 0
x_15_24_2 0
x_15_24_3 0
x_15_24_4 0
x_15_24_5 0
x_15_25_0 0
x_15_25_1 0
x_15_25_2 0
x_15_25_3 0
x_15_25_4 0
x_15_25_5 0
x_16_17_0 0
x_16_17_1 0
x_16_17_2 0
x_16_17_3 0
x_16_17_4 0
x_16_17_5 0
x_16_18_0 0
x_16_18_1 0
x_16_18_2 0
x_16_18_3 0
x_16_18_4 0
x_16_18_5 0
x_16_19_0 0
x_16_19_1 0
x_16_19_2 0
x_16_19_3 0
x_16_19_4 0
x_16_19_5 0
x_16_20_0 -1.8873791418627661e-15
x_16_20_1 1.0000000000001026e+00
x_16_20_2 0
x_16_20_3 1.0000000000001521e+00
x_16_20_4 1.0000000000000007e+00
x_16_20_5 0
x_16_21_0 0
x_16_21_1 0
x_16_21_2 0
x_16_21_3 0
x_16_21_4 0
x_16_21_5 0
x_16_22_0 0
x_16_22_1 0
x_16_22_2 0
x_16_22_3 0
x_16_22_4 0
x_16_22_5 0
x_16_23_0 0
x_16_23_1 0
x_16_23_2 0
x_16_23_3 0
x_16_23_4 1.0000000000000013e+00
x_16_23_5 0
x_16_24_0 0
x_16_24_1 0
x_16_24_2 0
x_16_24_3 -6.4970251401064161e-13
x_16_24_4 0
x_16_24_5 0
x_16_25_0 0
x_16_25_1 0
x_16_25_2 0
x_16_25_3 0
x_16_25_4 0
x_16_25_5 0
x_17_18_0 0
x_17_18_1 1.0000000000000644e+00
x_17_18_2 0
x_17_18_3 0
x_17_18_4 0
x_17_18_5 0
x_17_19_0 0
x_17_19_1 0
x_17_19_2 0
x_17_19_3 0
x_17_19_4 0
x_17_19_5 0
x_17_20_0 0
x_17_20_1 0
x_17_20_2 0
x_17_20_3 0
x_17_20_4 0
x_17_20_5 0
x_17_21_0 0
x_17_21_1 0
x_17_21_2 0
x_17_21_3 0
x_17_21_4 0
x_17_21_5 0
x_17_22_0 0
x_17_22_1 -6.4559468881952853e-14
x_17_22_2 0
x_17_22_3 0
x_17_22_4 0
x_17_22_5 0
x_17_23_0 0
x_17_23_1 0
x_17_23_2 0
x_17_23_3 0
x_17_23_4 0
x_17_23_5 0
x_17_24_0 0
x_17_24_1 0
x_17_24_2 0
x_17_24_3 0
x_17_24_4 0
x_17_24_5 0
x_17_25_0 0
x_17_25_1 0
x_17_25_2 0
x_17_25_3 -9.43689570931383e-16
x_17_25_4 0
x_17_25_5 0
x_18_19_0 0
x_18_19_1 9.9999999999999978e-01
x_18_19_2 1
x_18_19_3 0
x_18_19_4 1
x_18_19_5 0
x_18_20_0 0
x_18_20_1 0
x_18_20_2 0
x_18_20_3 0
x_18_20_4 0
x_18_20_5 0
x_18_21_0 0
x_18_21_1 0
x_18_21_2 0
x_18_21_3 0
x_18_21_4 0
x_18_21_5 0
x_18_22_0 0
x_18_22_1 0
x_18_22_2 0
x_18_22_3 0
x_18_22_4 0
x_18_22_5 0
x_18_23_0 0
x_18_23_1 0
x_18_23_2 0
x_18_23_3 0
x_18_23_4 0
x_18_23_5 0
x_18_24_0 0
x_18_24_1 0
x_18_24_2 0
x_18_24_3 0
x_18_24_4 0
x_18_24_5 0
x_18_25_0 0
x_18_25_1 0
x_18_25_2 0
x_18_25_3 0
x_18_25_4 0
x_18_25_5 0
x_19_20_0 0
x_19_20_1 0
x_19_20_2 0
x_19_20_3 0
x_19_20_4 0
x_19_20_5 0
x_19_21_0 0
x_19_21_1 0
x_19_21_2 0
x_19_21_3 0
x_19_21_4 0
x_19_21_5 0
x_19_22_0 0
x_19_22_1 0
x_19_22_2 0
x_19_22_3 0
x_19_22_4 0
x_19_22_5 0
x_19_23_0 0
x_19_23_1 0
x_19_23_2 0
x_19_23_3 0
x_19_23_4 0
x_19_23_5 0
x_19_24_0 0
x_19_24_1 0
x_19_24_2 1.0000000000001084e+00
x_19_24_3 0
x_19_24_4 -5.9369176241830246e-14
x_19_24_5 6.6890937233665682e-15
x_19_25_0 0
x_19_25_1 0
x_19_25_2 0
x_19_25_3 0
x_19_25_4 0
x_19_25_5 0
x_20_21_0 0
x_20_21_1 0
x_20_21_2 0
x_20_21_3 0
x_20_21_4 0
x_20_21_5 0
x_20_22_0 0
x_20_22_1 0
x_20_22_2 0
x_20_22_3 0
x_20_22_4 0
x_20_22_5 0
x_20_23_0 0
x_20_23_1 0
x_20_23_2 0
x_20_23_3 0
x_20_23_4 0
x_20_23_5 0
x_20_24_0 0
x_20_24_1 0
x_20_24_2 0
x_20_24_3 0
x_20_24_4 0
x_20_24_5 0
x_20_25_0 0
x_20_25_1 0
x_20_25_2 0
x_20_25_3 0
x_20_25_4 0
x_20_25_5 0
x_21_22_0 0
x_21_22_1 1.8218759834098819e-13
x_21_22_2 -4.6185277824406512e-14
x_21_22_3 7.8068634998065033e-14
x_21_22_4 0
x_21_22_5 0
x_21_23_0 0
x_21_23_1 0
x_21_23_2 0
x_21_23_3 0
x_21_23_4 0
x_21_23_5 0
x_21_24_0 -7.2719608112947753e-15
x_21_24_1 0
x_21_24_2 2.2648549702353193e-14
x_21_24_3 1.0000000000001035e+00
x_21_24_4 0
x_21_24_5 0
x_21_25_0 7.2719608112947753e-15
x_21_25_1 0
x_21_25_2 1.0000000000001388e+00
x_21_25_3 0
x_21_25_4 -1.0952350137927169e-13
x_21_25_5 0
x_22_23_0 0
x_22_23_1 0
x_22_23_2 0
x_22_23_3 0
x_22_23_4 0
x_22_23_5 0
x_22_24_0 0
x_22_24_1 0
x_22_24_2 0
x_22_24_3 0
x_22_24_4 0
x_22_24_5 0
x_22_25_0 0
x_22_25_1 0
x_22_25_2 -2.9509727994536661e-13
x_22_25_3 7.8068634998065033e-14
x_22_25_4 0.999999999999922
x_22_25_5 0
x_23_24_0 0
x_23_24_1 0
x_23_24_2 0.999999999999623
x_23_24_3 0
x_23_24_4 0
x_23_24_5 0
x_23_25_0 0
x_23_25_1 0
x_23_25_2 0
x_23_25_3 0
x_23_25_4 0
x_23_25_5 0
x_24_25_0 -7.3829831137572910e-15
x_24_25_1 -1.0803857808383555e-13
x_24_25_2 9.7033492352238682e-14
x_24_25_3 -7.7235967729596166e-14
x_24_25_4 0
x_24_25_5 0
